data/OOEBPP/R1000/BPP_1000_150_0.1_0.8_8.txt.ins
1000
150 150
1 120 595
2 120 355
3 120 96
4 120 406
5 119 280
6 119 61
7 119 464
8 119 503
9 119 182
10 119 15
11 119 98
12 119 86
13 119 365
14 118 629
15 118 168
16 118 959
17 118 208
18 118 374
19 118 344
20 118 408
21 117 480
22 117 894
23 117 795
24 117 550
25 117 312
26 117 805
27 117 512
28 117 46
29 117 616
30 117 681
31 117 346
32 117 894
33 116 425
34 116 92
35 116 995
36 116 944
37 116 363
38 116 847
39 116 82
40 116 113
41 116 927
42 116 14
43 116 810
44 115 514
45 115 491
46 115 381
47 115 879
48 115 528
49 115 5
50 115 154
51 114 591
52 114 272
53 114 260
54 114 34
55 114 20
56 114 560
57 114 34
58 114 846
59 114 515
60 114 655
61 114 595
62 114 255
63 114 697
64 113 299
65 113 302
66 113 673
67 113 298
68 113 626
69 113 602
70 113 239
71 113 275
72 113 166
73 113 746
74 113 461
75 113 280
76 113 766
77 112 524
78 112 236
79 112 648
80 112 826
81 112 220
82 112 909
83 112 947
84 112 233
85 112 955
86 112 981
87 112 966
88 112 788
89 112 96
90 112 1
91 112 524
92 111 189
93 111 729
94 111 682
95 111 994
96 111 932
97 111 89
98 111 479
99 111 206
100 111 522
101 111 42
102 110 389
103 110 305
104 110 856
105 110 86
106 110 300
107 110 928
108 110 276
109 109 919
110 109 594
111 108 164
112 108 769
113 108 31
114 108 415
115 108 653
116 108 525
117 108 998
118 108 59
119 107 800
120 107 104
121 107 542
122 107 988
123 107 727
124 107 779
125 107 805
126 107 537
127 107 486
128 107 853
129 107 389
130 107 783
131 107 71
132 107 701
133 107 14
134 106 363
135 106 554
136 106 575
137 106 201
138 106 906
139 106 708
140 106 627
141 106 520
142 106 499
143 106 480
144 106 546
145 106 789
146 106 405
147 105 266
148 105 626
149 105 98
150 105 999
151 105 609
152 105 16
153 105 577
154 105 865
155 105 206
156 105 477
157 105 779
158 104 171
159 104 536
160 104 853
161 104 921
162 104 446
163 103 551
164 103 77
165 103 918
166 103 940
167 103 732
168 103 999
169 102 20
170 102 530
171 102 943
172 102 332
173 102 246
174 101 319
175 101 76
176 101 128
177 101 923
178 101 960
179 101 203
180 101 427
181 101 895
182 101 152
183 101 298
184 101 652
185 101 579
186 101 355
187 100 673
188 100 234
189 100 572
190 100 403
191 100 894
192 100 828
193 100 746
194 100 686
195 100 89
196 100 36
197 100 245
198 100 818
199 100 596
200 99 720
201 99 507
202 99 694
203 99 349
204 99 443
205 99 366
206 99 698
207 99 429
208 99 823
209 98 468
210 98 823
211 98 482
212 98 694
213 98 805
214 98 588
215 98 801
216 98 708
217 98 980
218 98 720
219 98 372
220 97 100
221 97 967
222 97 375
223 97 150
224 97 966
225 97 465
226 97 91
227 96 601
228 96 1
229 96 109
230 96 646
231 96 674
232 96 266
233 96 383
234 96 470
235 96 761
236 96 274
237 95 728
238 95 298
239 95 961
240 95 965
241 95 631
242 95 317
243 95 95
244 95 583
245 95 718
246 95 361
247 94 470
248 94 918
249 94 307
250 94 592
251 94 972
252 94 273
253 94 750
254 94 842
255 93 951
256 93 285
257 93 2
258 93 601
259 93 53
260 93 967
261 93 784
262 93 57
263 93 28
264 92 512
265 92 255
266 92 994
267 92 114
268 92 199
269 92 187
270 92 944
271 91 870
272 91 203
273 91 32
274 91 111
275 91 107
276 91 799
277 91 683
278 91 179
279 91 256
280 91 867
281 90 560
282 90 867
283 90 994
284 90 326
285 90 69
286 90 12
287 90 307
288 90 529
289 90 59
290 90 10
291 89 334
292 89 583
293 89 841
294 89 377
295 89 158
296 89 578
297 88 265
298 88 501
299 88 407
300 88 758
301 88 939
302 88 505
303 88 486
304 88 995
305 88 398
306 88 421
307 88 38
308 87 76
309 87 946
310 87 234
311 87 979
312 87 253
313 86 289
314 86 300
315 86 403
316 86 698
317 86 652
318 86 11
319 86 31
320 86 616
321 86 790
322 85 388
323 85 314
324 85 576
325 85 440
326 85 256
327 85 763
328 85 29
329 85 351
330 85 133
331 85 641
332 84 718
333 84 94
334 84 507
335 84 915
336 84 543
337 84 360
338 84 292
339 84 941
340 84 270
341 84 274
342 83 997
343 83 968
344 83 745
345 83 656
346 83 965
347 83 849
348 83 71
349 83 246
350 83 838
351 83 246
352 83 419
353 82 544
354 82 802
355 82 173
356 82 868
357 82 49
358 82 391
359 82 510
360 82 78
361 82 195
362 82 113
363 82 110
364 82 872
365 82 325
366 81 364
367 81 980
368 81 214
369 81 606
370 81 385
371 81 575
372 81 776
373 80 658
374 80 506
375 80 494
376 80 596
377 80 743
378 80 7
379 80 921
380 80 147
381 80 351
382 80 205
383 80 608
384 80 130
385 79 423
386 79 284
387 79 930
388 79 853
389 79 898
390 79 551
391 79 78
392 79 370
393 79 969
394 79 743
395 79 711
396 78 584
397 78 166
398 78 576
399 78 772
400 78 137
401 78 281
402 78 822
403 78 615
404 77 8
405 77 967
406 77 227
407 77 578
408 77 462
409 77 487
410 77 219
411 77 960
412 76 142
413 76 105
414 76 432
415 76 855
416 76 249
417 75 867
418 75 783
419 75 302
420 75 206
421 75 859
422 75 604
423 75 144
424 75 808
425 75 425
426 75 744
427 75 396
428 75 746
429 75 309
430 75 594
431 74 338
432 74 61
433 74 212
434 74 385
435 74 873
436 74 276
437 74 602
438 73 712
439 73 965
440 73 215
441 73 386
442 73 57
443 73 891
444 73 996
445 73 332
446 73 652
447 73 11
448 72 783
449 72 624
450 72 896
451 72 127
452 72 947
453 72 585
454 72 589
455 72 693
456 72 879
457 71 551
458 71 792
459 71 736
460 71 221
461 71 399
462 71 228
463 71 71
464 71 945
465 71 720
466 71 116
467 71 505
468 71 899
469 71 747
470 70 796
471 70 824
472 70 191
473 70 812
474 70 824
475 70 778
476 70 48
477 70 786
478 70 531
479 70 543
480 70 865
481 70 364
482 70 389
483 70 132
484 70 849
485 69 511
486 69 629
487 69 784
488 69 491
489 69 244
490 69 46
491 69 125
492 69 865
493 69 209
494 68 837
495 68 762
496 68 971
497 68 171
498 68 644
499 68 721
500 68 660
501 68 414
502 68 338
503 68 680
504 68 785
505 67 218
506 67 875
507 67 534
508 67 703
509 67 90
510 67 101
511 67 357
512 67 656
513 67 338
514 67 924
515 67 568
516 66 906
517 66 655
518 66 665
519 65 857
520 65 759
521 65 164
522 65 225
523 65 497
524 64 472
525 64 524
526 64 843
527 64 469
528 64 353
529 64 136
530 64 232
531 64 142
532 64 224
533 64 584
534 64 311
535 63 636
536 63 888
537 63 690
538 63 951
539 63 349
540 63 78
541 63 584
542 63 572
543 63 528
544 63 4
545 63 521
546 63 107
547 63 206
548 62 718
549 62 820
550 62 637
551 62 778
552 62 206
553 61 88
554 61 7
555 61 404
556 61 242
557 61 760
558 61 554
559 61 722
560 61 706
561 61 507
562 60 723
563 60 370
564 60 425
565 60 935
566 60 116
567 60 806
568 60 215
569 60 852
570 60 603
571 59 781
572 59 687
573 59 813
574 59 936
575 59 836
576 59 374
577 59 766
578 58 641
579 58 959
580 58 452
581 58 526
582 58 45
583 58 161
584 58 136
585 58 902
586 58 874
587 57 609
588 57 289
589 57 985
590 57 140
591 57 491
592 57 998
593 57 9
594 57 118
595 57 940
596 57 33
597 57 664
598 57 962
599 56 870
600 56 265
601 56 458
602 56 877
603 56 531
604 56 775
605 56 993
606 56 715
607 56 649
608 56 33
609 55 632
610 55 708
611 55 165
612 55 171
613 55 963
614 55 889
615 55 94
616 55 510
617 55 140
618 54 611
619 54 232
620 54 782
621 54 306
622 54 847
623 54 846
624 54 504
625 54 64
626 54 222
627 54 292
628 54 1
629 54 570
630 54 996
631 54 450
632 54 702
633 54 208
634 54 640
635 53 700
636 53 647
637 53 769
638 53 973
639 53 691
640 53 405
641 53 877
642 53 664
643 53 630
644 53 42
645 53 171
646 53 583
647 52 584
648 52 470
649 52 852
650 52 448
651 52 58
652 52 80
653 52 515
654 51 525
655 51 199
656 51 41
657 51 293
658 51 746
659 51 76
660 51 317
661 51 692
662 50 223
663 50 308
664 50 73
665 50 654
666 50 521
667 50 694
668 50 75
669 50 666
670 49 113
671 49 424
672 49 260
673 49 70
674 49 769
675 49 425
676 48 459
677 48 264
678 48 944
679 48 37
680 48 877
681 48 209
682 48 594
683 48 106
684 48 986
685 47 293
686 47 417
687 47 939
688 47 952
689 47 212
690 47 246
691 47 92
692 47 532
693 47 808
694 46 470
695 46 340
696 46 444
697 46 386
698 46 891
699 46 440
700 46 573
701 46 256
702 46 651
703 46 905
704 46 943
705 46 534
706 45 521
707 45 462
708 45 689
709 45 645
710 45 320
711 45 840
712 44 782
713 44 502
714 44 872
715 44 206
716 44 406
717 44 551
718 44 32
719 44 71
720 44 477
721 44 270
722 44 801
723 43 703
724 43 275
725 43 212
726 43 32
727 43 682
728 43 778
729 43 116
730 43 371
731 43 699
732 42 337
733 42 147
734 42 332
735 42 711
736 42 475
737 42 359
738 42 250
739 42 194
740 42 553
741 42 912
742 42 7
743 42 853
744 41 978
745 41 942
746 41 993
747 41 643
748 41 894
749 41 941
750 41 280
751 41 637
752 41 936
753 41 289
754 41 348
755 41 943
756 40 824
757 40 394
758 40 564
759 40 204
760 40 434
761 40 259
762 40 260
763 40 428
764 40 985
765 40 655
766 40 874
767 39 737
768 39 489
769 39 559
770 39 716
771 39 477
772 39 386
773 38 869
774 38 554
775 38 450
776 38 994
777 38 821
778 38 587
779 38 452
780 38 391
781 38 839
782 38 53
783 38 393
784 38 267
785 38 297
786 38 883
787 38 482
788 37 546
789 37 348
790 37 3
791 37 628
792 37 767
793 37 128
794 37 777
795 37 247
796 37 84
797 36 983
798 36 172
799 36 508
800 36 804
801 36 708
802 36 956
803 36 224
804 36 375
805 36 128
806 36 588
807 36 723
808 35 53
809 35 301
810 35 447
811 35 826
812 35 688
813 34 412
814 34 431
815 34 383
816 34 5
817 34 516
818 34 797
819 34 800
820 34 16
821 34 960
822 33 551
823 33 791
824 33 418
825 33 339
826 33 646
827 33 80
828 33 230
829 33 869
830 33 980
831 33 632
832 32 718
833 32 355
834 32 557
835 32 245
836 32 404
837 32 656
838 32 611
839 32 270
840 31 668
841 31 364
842 31 939
843 31 496
844 31 197
845 31 661
846 31 532
847 31 126
848 30 563
849 30 445
850 30 718
851 30 867
852 30 478
853 30 965
854 30 574
855 30 905
856 30 398
857 30 943
858 30 575
859 29 12
860 29 639
861 29 321
862 29 512
863 29 1
864 29 258
865 29 194
866 29 296
867 29 686
868 29 730
869 28 978
870 28 896
871 28 503
872 28 504
873 28 193
874 28 976
875 28 277
876 28 746
877 28 212
878 28 354
879 27 910
880 27 387
881 27 915
882 27 929
883 27 830
884 27 993
885 27 133
886 27 83
887 27 594
888 27 701
889 27 636
890 27 20
891 27 717
892 27 340
893 27 272
894 26 700
895 26 30
896 26 6
897 26 196
898 26 854
899 26 234
900 26 327
901 26 965
902 26 236
903 26 501
904 25 49
905 25 414
906 25 152
907 25 439
908 25 838
909 25 950
910 25 405
911 25 616
912 25 465
913 25 114
914 25 933
915 24 376
916 24 91
917 24 363
918 24 235
919 24 588
920 24 516
921 24 647
922 23 363
923 23 173
924 23 819
925 23 958
926 23 372
927 23 242
928 23 150
929 23 773
930 23 557
931 23 402
932 23 801
933 23 519
934 22 274
935 22 408
936 22 711
937 22 138
938 22 899
939 22 154
940 22 768
941 22 611
942 22 656
943 22 84
944 21 110
945 21 207
946 21 562
947 21 902
948 21 830
949 21 442
950 21 12
951 21 433
952 21 675
953 21 822
954 21 175
955 20 387
956 20 925
957 20 475
958 20 75
959 20 304
960 20 562
961 20 285
962 20 605
963 19 151
964 19 732
965 19 561
966 19 372
967 19 387
968 19 997
969 18 401
970 18 661
971 18 618
972 18 668
973 18 329
974 18 393
975 17 724
976 17 492
977 17 84
978 17 33
979 17 695
980 17 646
981 16 868
982 16 730
983 16 602
984 16 708
985 16 268
986 16 959
987 16 521
988 16 546
989 16 642
990 16 139
991 16 615
992 15 399
993 15 607
994 15 164
995 15 221
996 15 405
997 15 95
998 15 392
999 15 606
1000 15 593
