results/OOEBPP/BPP_1000_150_0.1_0.8_8.txt.ins.log
265,263.999,1151.33,OPT,17159,265,22,ANI,100,0.0227273,3.56439,1.14074,1136.81,0,2,37,261,261
